SECTION Graph
Nodes 314
Edges 650
E 1 9 21
E 1 36 7
E 2 3 14
E 2 10 21
E 3 4 1
E 3 11 21
E 4 12 21
E 5 6 1
E 5 151 21
E 6 7 14
E 6 152 21
E 7 8 1
E 7 161 21
E 8 125 7
E 8 162 21
E 9 10 1
E 9 40 7
E 9 276 10
E 10 11 14
E 10 278 10
E 11 12 1
E 11 15 21
E 12 16 21
E 13 14 1
E 13 17 21
E 13 44 7
E 13 276 11
E 14 15 14
E 14 18 21
E 14 278 11
E 15 16 1
E 15 19 21
E 16 20 21
E 17 18 1
E 17 21 21
E 17 48 7
E 18 19 14
E 18 22 21
E 19 20 1
E 19 23 21
E 20 24 21
E 21 22 1
E 21 25 21
E 21 52 7
E 22 23 14
E 22 26 21
E 23 24 1
E 23 27 21
E 24 28 21
E 25 26 1
E 25 29 21
E 25 56 7
E 26 27 14
E 26 30 21
E 27 28 1
E 27 31 21
E 28 32 21
E 29 30 1
E 29 60 7
E 30 31 14
E 31 32 1
E 33 34 1
E 33 267 17
E 33 277 7
E 34 35 14
E 34 269 17
E 35 36 1
E 35 279 17
E 36 280 17
E 37 38 1
E 37 262 7
E 37 263 4
E 37 267 4
E 38 39 14
E 38 264 4
E 38 269 4
E 39 40 1
E 39 273 4
E 39 279 4
E 40 274 4
E 40 280 4
E 41 42 1
E 41 45 21
E 41 244 7
E 41 259 11
E 42 43 14
E 42 46 21
E 42 260 11
E 43 44 1
E 43 47 21
E 43 270 11
E 44 48 21
E 44 271 11
E 45 46 1
E 45 49 21
E 45 223 7
E 46 47 14
E 46 50 21
E 47 48 1
E 47 51 21
E 48 52 21
E 49 50 1
E 49 53 21
E 49 197 7
E 50 51 14
E 50 54 21
E 51 52 1
E 51 55 21
E 52 56 21
E 53 54 1
E 53 174 7
E 53 178 6
E 54 55 14
E 54 180 6
E 55 56 1
E 55 192 6
E 56 194 6
E 57 58 1
E 57 154 7
E 57 156 6
E 57 178 15
E 58 59 14
E 58 158 6
E 58 180 15
E 59 60 1
E 59 166 6
E 59 192 15
E 60 169 6
E 60 194 15
E 61 62 1
E 61 146 7
E 61 156 15
E 62 63 14
E 62 158 15
E 63 64 1
E 63 166 15
E 64 169 15
E 65 66 1
E 65 247 7
E 65 249 4
E 65 265 17
E 66 250 4
E 66 255 6
E 66 266 17
E 67 68 1
E 67 258 6
E 67 261 4
E 67 275 17
E 68 262 4
E 68 267 7
E 68 277 17
E 69 70 1
E 69 147 15
E 69 150 7
E 69 159 6
E 70 71 14
E 70 148 15
E 70 160 6
E 71 72 1
E 71 153 15
E 71 171 6
E 72 154 15
E 72 174 6
E 72 178 7
E 73 74 1
E 73 139 15
E 73 142 7
E 73 147 6
E 74 75 14
E 74 140 15
E 74 148 6
E 75 76 1
E 75 145 15
E 75 153 6
E 76 146 15
E 76 154 6
E 76 156 7
E 77 78 6
E 77 79 2
E 77 233 11
E 77 242 6
E 78 80 2
E 78 248 6
E 78 253 4
E 79 80 6
E 79 235 11
E 79 251 6
E 80 254 4
E 80 256 6
E 81 82 1
E 81 229 17
E 81 241 7
E 82 83 14
E 82 230 17
E 83 84 1
E 83 245 17
E 84 247 17
E 84 265 7
E 85 86 1
E 85 215 7
E 85 221 3
E 85 229 4
E 86 87 14
E 86 225 3
E 86 230 4
E 87 88 1
E 87 236 3
E 87 245 4
E 88 239 3
E 88 247 4
E 88 249 7
E 89 90 1
E 89 193 7
E 89 196 3
E 89 208 11
E 90 91 14
E 90 199 3
E 90 210 11
E 91 92 1
E 91 211 3
E 91 231 11
E 92 213 3
E 92 227 7
E 92 232 11
E 93 94 1
E 93 168 7
E 93 173 3
E 93 196 18
E 94 95 14
E 94 177 3
E 94 199 18
E 95 96 1
E 95 188 3
E 95 211 18
E 96 191 3
E 96 204 7
E 96 213 18
E 97 98 1
E 97 101 21
E 97 173 18
E 98 99 14
E 98 102 21
E 98 177 18
E 99 100 1
E 99 103 21
E 99 188 18
E 100 104 21
E 100 181 7
E 100 191 18
E 101 102 1
E 101 143 6
E 102 103 14
E 102 144 6
E 103 104 1
E 103 149 6
E 104 150 6
E 104 159 7
E 105 106 1
E 105 137 6
E 105 143 15
E 106 107 14
E 106 138 6
E 106 144 15
E 107 108 1
E 107 141 6
E 107 149 15
E 108 142 6
E 108 147 7
E 108 150 15
E 109 110 1
E 109 137 15
E 110 111 14
E 110 138 15
E 111 112 1
E 111 141 15
E 112 139 7
E 112 142 15
E 113 114 1
E 113 224 1
E 114 115 14
E 114 226 1
E 115 116 1
E 115 238 1
E 116 241 1
E 117 118 1
E 117 175 18
E 117 184 7
E 117 198 3
E 118 119 14
E 118 179 18
E 118 201 3
E 119 120 1
E 119 189 18
E 119 212 3
E 120 193 18
E 120 215 3
E 120 221 7
E 121 122 1
E 121 155 18
E 121 162 7
E 121 172 2
E 122 123 14
E 122 157 18
E 122 176 2
E 123 124 1
E 123 165 18
E 123 187 2
E 124 168 18
E 124 190 2
E 124 196 7
E 125 126 1
E 125 155 3
E 126 127 14
E 126 157 3
E 127 128 1
E 127 165 3
E 128 168 3
E 128 173 7
E 129 130 1
E 129 167 4
E 130 131 14
E 130 170 4
E 131 132 1
E 131 183 4
E 132 184 4
E 132 200 7
E 133 134 1
E 133 151 2
E 133 167 19
E 134 135 14
E 134 152 2
E 134 170 19
E 135 136 1
E 135 161 2
E 135 183 19
E 136 162 2
E 136 172 7
E 136 184 19
E 137 138 1
E 138 141 14
E 139 140 1
E 140 145 14
E 141 142 1
E 143 144 1
E 144 149 14
E 145 146 1
E 147 148 1
E 148 153 14
E 149 150 1
E 151 152 1
E 152 161 14
E 153 154 1
E 155 157 1
E 156 158 1
E 157 165 14
E 158 166 14
E 159 160 1
E 159 181 21
E 160 163 6
E 160 182 21
E 161 162 1
E 163 164 2
E 163 185 21
E 164 171 6
E 164 186 21
E 165 168 1
E 166 169 1
E 167 170 1
E 170 183 14
E 171 174 1
E 171 195 21
E 172 175 1
E 172 176 1
E 173 177 1
E 174 197 21
E 175 179 1
E 176 179 1
E 176 187 14
E 177 188 14
E 178 180 1
E 179 189 14
E 180 192 14
E 181 182 1
E 181 204 21
E 182 185 6
E 182 206 21
E 183 184 1
E 185 186 2
E 185 207 21
E 186 195 6
E 186 209 21
E 187 189 1
E 187 190 1
E 188 191 1
E 189 193 1
E 190 193 1
E 192 194 1
E 195 197 1
E 195 219 21
E 196 199 1
E 197 223 21
E 198 200 1
E 198 201 1
E 199 211 14
E 200 202 1
E 200 203 3
E 201 202 1
E 201 212 14
E 202 205 3
E 202 214 14
E 203 205 1
E 203 224 17
E 204 206 1
E 204 227 21
E 205 217 14
E 205 226 17
E 206 207 6
E 206 228 21
E 207 209 2
E 207 233 21
E 208 210 1
E 208 218 6
E 209 219 6
E 209 235 21
E 210 222 6
E 210 231 14
E 211 213 1
E 212 214 1
E 212 215 1
E 214 216 1
E 214 217 3
E 215 216 1
E 216 220 3
E 217 220 1
E 217 238 17
E 218 221 1
E 218 222 1
E 219 223 1
E 219 243 21
E 220 229 7
E 220 241 17
E 221 225 1
E 222 225 1
E 222 234 14
E 223 244 21
E 224 226 1
E 225 236 14
E 226 238 14
E 227 228 1
E 227 240 11
E 228 233 6
E 228 242 11
E 229 230 1
E 230 245 14
E 231 232 1
E 231 234 6
E 232 237 6
E 232 240 7
E 233 235 2
E 234 236 1
E 234 237 1
E 235 243 6
E 236 239 1
E 237 239 1
E 237 246 7
E 238 241 1
E 240 242 1
E 240 246 6
E 242 248 6
E 243 244 1
E 243 251 11
E 244 252 11
E 245 247 1
E 246 248 1
E 246 249 4
E 248 250 4
E 249 250 1
E 250 253 6
E 251 252 1
E 251 256 6
E 252 257 6
E 252 259 7
E 253 254 2
E 253 255 4
E 254 258 4
E 254 261 6
E 255 258 2
E 255 268 17
E 256 257 1
E 256 261 4
E 257 262 4
E 257 263 7
E 258 272 17
E 259 260 1
E 259 263 6
E 260 264 6
E 260 270 14
E 261 262 1
E 263 264 1
E 264 273 14
E 265 266 1
E 266 268 6
E 267 269 1
E 268 272 2
E 269 279 14
E 270 271 1
E 270 273 6
E 271 274 6
E 271 276 7
E 272 275 6
E 273 274 1
E 275 277 1
E 276 278 1
E 279 280 1
E 1 281 100000
E 2 281 100000
E 3 281 100000
E 4 281 100000
E 5 282 100000
E 6 282 100000
E 7 282 100000
E 8 282 100000
E 9 283 100000
E 10 283 100000
E 11 283 100000
E 12 283 100000
E 13 284 100000
E 14 284 100000
E 15 284 100000
E 16 284 100000
E 17 285 100000
E 18 285 100000
E 19 285 100000
E 20 285 100000
E 21 286 100000
E 22 286 100000
E 23 286 100000
E 24 286 100000
E 25 287 100000
E 26 287 100000
E 27 287 100000
E 28 287 100000
E 29 288 100000
E 30 288 100000
E 31 288 100000
E 32 288 100000
E 33 289 100000
E 34 289 100000
E 35 289 100000
E 36 289 100000
E 37 290 100000
E 38 290 100000
E 39 290 100000
E 40 290 100000
E 41 291 100000
E 42 291 100000
E 43 291 100000
E 44 291 100000
E 45 292 100000
E 46 292 100000
E 47 292 100000
E 48 292 100000
E 49 293 100000
E 50 293 100000
E 51 293 100000
E 52 293 100000
E 53 294 100000
E 54 294 100000
E 55 294 100000
E 56 294 100000
E 57 295 100000
E 58 295 100000
E 59 295 100000
E 60 295 100000
E 61 296 100000
E 62 296 100000
E 63 296 100000
E 64 296 100000
E 65 297 100000
E 66 297 100000
E 67 297 100000
E 68 297 100000
E 69 298 100000
E 70 298 100000
E 71 298 100000
E 72 298 100000
E 73 299 100000
E 74 299 100000
E 75 299 100000
E 76 299 100000
E 77 300 100000
E 78 300 100000
E 79 300 100000
E 80 300 100000
E 81 301 100000
E 82 301 100000
E 83 301 100000
E 84 301 100000
E 85 302 100000
E 86 302 100000
E 87 302 100000
E 88 302 100000
E 89 303 100000
E 90 303 100000
E 91 303 100000
E 92 303 100000
E 93 304 100000
E 94 304 100000
E 95 304 100000
E 96 304 100000
E 97 305 100000
E 98 305 100000
E 99 305 100000
E 100 305 100000
E 101 306 100000
E 102 306 100000
E 103 306 100000
E 104 306 100000
E 105 307 100000
E 106 307 100000
E 107 307 100000
E 108 307 100000
E 109 308 100000
E 110 308 100000
E 111 308 100000
E 112 308 100000
E 113 309 100000
E 114 309 100000
E 115 309 100000
E 116 309 100000
E 117 310 100000
E 118 310 100000
E 119 310 100000
E 120 310 100000
E 121 311 100000
E 122 311 100000
E 123 311 100000
E 124 311 100000
E 125 312 100000
E 126 312 100000
E 127 312 100000
E 128 312 100000
E 129 313 100000
E 130 313 100000
E 131 313 100000
E 132 313 100000
E 133 314 100000
E 134 314 100000
E 135 314 100000
E 136 314 100000
END

SECTION Terminals
Terminals 34
T 281
T 282
T 283
T 284
T 285
T 286
T 287
T 288
T 289
T 290
T 291
T 292
T 293
T 294
T 295
T 296
T 297
T 298
T 299
T 300
T 301
T 302
T 303
T 304
T 305
T 306
T 307
T 308
T 309
T 310
T 311
T 312
T 313
T 314
END

SECTION Tree Decomposition
c We do not guarantee that this tree decomposition has minimum width.
s td 63 20 314
b 1 68 79 80 104 105 106 149 181 206 233 261 277
b 2 29 49 50 51 56 223 243 68 79 80 104 105 106 149 181 206 233 261 277
b 3 89 90 96 119 120 200 201 211 68 79 80 104 105 106 149 181 206 233 261 277
b 4 81 85 230 68 79 80 181 206 233 261 277 89 90 96 119 120 200 201 211
b 5 1 9 44 48 271 68 79 80 261 277 29 49 50 51 56 223 243
b 6 121 125 176 189 104 105 106 149 181 89 90 96 119 120 200 201 211
b 7 72 76 145 153 174 79 104 105 106 149 181 206 233 29 49 50 51 56 223 243
b 8 88 242 245 246 68 79 80 181 206 233 261 277 89 90 96 120 211 81 85 230
b 9 69 148 79 104 105 106 149 181 206 233 49 223 243 72 76 145 153 174
b 10 37 264 270 68 79 80 261 277 49 50 51 223 243 1 9 44 48 271
b 11 128 168 196 104 105 106 149 181 89 90 96 120 211 121 125 176 189
b 12 15 16 278 29 49 50 51 56 1 9 44 48 271
b 13 133 134 135 136 119 120 200 201 121 125 176 189
b 14 21 22 23 24 29 49 50 51 56 9 44 48 271 15 16 278
b 15 231 237 181 206 233 89 90 96 120 211 85 230 88 242 245 246
b 16 65 266 68 79 80 233 261 277 81 230 88 242 245 246
b 17 57 58 192 29 49 50 51 56 72 76 145 153 174
b 18 41 259 68 79 80 261 49 50 51 223 243 44 48 37 264 270
b 19 97 98 188 104 105 106 149 181 90 96 211 128 168 196
b 20 164 171 185 79 104 181 206 233 49 223 243 72 153 174 69 148
b 21 112 141 104 105 106 149 76 145 153 69 148
b 22 184 119 120 200 201 121 176 189 133 134 135 136
b 23 66 253 68 79 80 233 261 277 88 242 246 65 266
b 24 205 238 241 119 120 200 201 81 85 230
b 25 73 104 105 106 149 76 145 153 69 148 112 141
b 26 269 279 280 68 277 1 9 271 37 264 270
b 27 122 123 89 120 121 125 176 189 128 168 196
b 28 225 234 89 90 120 85 230 88 245 231 237
b 29 64 166 29 56 76 145 57 58 192
b 30 13 14 17 18 19 20 276 284 285 9 44 48 271 15 16 278 21 22 23 24
b 31 91 92 204 213 227 228 232 240 303 181 206 233 89 90 96 211 242 246 231 237
b 32 99 100 101 102 103 143 144 191 305 306 104 105 106 149 181 96 97 98 188
b 33 244 251 252 256 257 262 263 68 79 80 261 223 243 37 264 41 259
b 34 42 43 45 46 47 260 291 292 49 50 51 223 44 48 264 270 41 259
b 35 70 71 159 160 163 182 298 104 181 206 72 153 69 148 164 171 185
b 36 202 212 214 215 216 217 220 229 119 120 200 201 81 85 230 205 238 241
b 37 25 26 27 28 30 31 32 287 288 29 56 21 22 23 24
b 38 77 78 248 249 250 300 79 80 233 88 242 246 65 66 253
b 39 53 54 55 178 180 294 49 50 51 56 72 174 57 58 192
b 40 93 94 95 173 177 199 304 90 96 211 128 168 196 97 98 188
b 41 186 195 197 207 209 219 235 79 206 233 49 223 243 174 164 171 185
b 42 117 118 172 175 179 198 310 119 120 200 201 121 176 189 136 184
b 43 38 39 40 273 274 290 9 271 37 264 270 269 279 280
b 44 107 108 142 147 150 307 104 105 106 149 69 148 112 141 73
b 45 126 127 155 157 165 312 121 125 128 168 122 123
b 46 61 62 63 146 156 158 296 76 145 57 58 64 166
b 47 109 110 111 137 138 308 105 106 112 141
b 48 154 72 76 153 57
b 49 82 83 84 247 265 301 81 230 88 245 65 266
b 50 129 130 131 132 167 170 183 313 200 133 134 135 184
b 51 314 133 134 135 136
b 52 2 3 4 10 11 12 281 283 1 9 15 16 278
b 53 208 210 218 221 222 89 90 120 85 231 225 234
b 54 286 21 22 23 24
b 55 5 6 7 8 151 152 161 162 282 121 125 133 134 135 136
b 56 67 254 255 258 268 272 275 297 68 80 261 277 65 266 66 253
b 57 113 114 115 116 203 224 226 309 200 205 238 241
b 58 74 75 139 140 299 76 145 153 148 112 73
b 59 33 34 35 36 267 289 68 277 1 37 269 279 280
b 60 124 187 190 193 311 89 120 121 176 189 168 196 122 123
b 61 86 87 236 239 302 85 230 88 245 237 225 234
b 62 59 60 169 194 295 29 56 57 58 192 64 166
b 63 52 293 49 50 51 56 48 21
2 1
3 1
4 3
5 2
6 3
7 2
8 4
9 7
10 5
11 6
12 5
13 6
14 12
15 8
16 8
17 7
18 10
19 11
20 9
21 9
22 13
23 16
24 4
25 21
26 10
27 11
28 15
29 17
30 14
31 15
32 19
33 18
34 18
35 20
36 24
37 14
38 23
39 17
40 19
41 20
42 22
43 26
44 25
45 27
46 29
47 21
48 17
49 16
50 22
51 13
52 12
53 28
54 14
55 13
56 23
57 24
58 25
59 26
60 27
61 28
62 29
63 14
END

EOF
